DIMACS_lns/graph-1000-121.col
p edge 1000 1848
e 1 62
e 1 56
e 1 184
e 1 590
e 1 411
e 2 908
e 2 269
e 2 135
e 2 626
e 3 971
e 3 162
e 3 667
e 3 747
e 4 171
e 4 789
e 4 804
e 4 208
e 4 753
e 4 530
e 5 337
e 5 771
e 5 797
e 5 160
e 5 357
e 6 248
e 6 120
e 6 338
e 9 954
e 9 838
e 9 863
e 9 557
e 9 251
e 9 731
e 10 825
e 10 732
e 10 336
e 10 949
e 10 387
e 13 725
e 13 706
e 13 364
e 14 545
e 14 823
e 14 45
e 14 203
e 14 136
e 15 946
e 15 225
e 15 382
e 15 942
e 15 697
e 15 756
e 15 233
e 16 982
e 16 85
e 16 986
e 16 138
e 16 518
e 16 710
e 16 312
e 17 970
e 17 713
e 17 423
e 17 651
e 17 797
e 17 954
e 17 305
e 19 692
e 19 766
e 19 486
e 21 700
e 21 962
e 21 247
e 21 53
e 22 156
e 22 900
e 22 32
e 22 467
e 22 700
e 22 754
e 23 398
e 23 632
e 23 264
e 23 161
e 23 633
e 23 965
e 23 895
e 23 996
e 23 847
e 24 117
e 24 945
e 24 496
e 24 827
e 24 134
e 24 591
e 24 824
e 24 42
e 26 502
e 26 497
e 26 46
e 32 649
e 32 700
e 32 523
e 33 377
e 33 86
e 33 154
e 33 878
e 34 367
e 34 509
e 34 481
e 34 312
e 34 385
e 35 96
e 35 729
e 35 436
e 35 595
e 36 862
e 36 390
e 36 347
e 36 513
e 36 89
e 36 782
e 38 637
e 38 444
e 38 852
e 38 624
e 39 409
e 39 697
e 39 49
e 41 298
e 41 818
e 41 50
e 41 291
e 41 761
e 42 526
e 42 867
e 42 452
e 42 712
e 42 954
e 42 249
e 42 518
e 43 306
e 43 824
e 43 641
e 43 665
e 45 265
e 45 252
e 45 177
e 46 669
e 46 491
e 46 652
e 46 884
e 46 923
e 46 814
e 46 813
e 46 305
e 46 887
e 47 267
e 47 877
e 47 193
e 47 700
e 47 921
e 48 403
e 48 556
e 48 383
e 48 422
e 49 915
e 49 201
e 49 747
e 49 229
e 49 114
e 50 486
e 50 539
e 50 166
e 50 484
e 50 425
e 50 244
e 50 75
e 51 424
e 51 637
e 51 799
e 51 800
e 51 863
e 53 328
e 53 431
e 53 674
e 53 327
e 53 886
e 53 537
e 54 452
e 54 836
e 54 989
e 55 205
e 55 232
e 55 137
e 55 514
e 55 954
e 56 854
e 56 496
e 57 800
e 57 477
e 57 428
e 57 712
e 57 195
e 57 76
e 58 379
e 58 725
e 58 251
e 60 169
e 60 66
e 60 506
e 60 842
e 60 896
e 61 686
e 61 178
e 61 874
e 62 331
e 62 833
e 62 727
e 62 417
e 62 784
e 63 464
e 63 370
e 63 694
e 64 741
e 64 379
e 64 816
e 64 525
e 64 637
e 64 206
e 66 794
e 66 219
e 66 211
e 66 995
e 66 513
e 66 742
e 66 853
e 67 274
e 67 98
e 67 634
e 67 430
e 68 671
e 68 328
e 68 407
e 68 321
e 68 939
e 68 641
e 68 203
e 69 964
e 69 426
e 69 110
e 69 120
e 69 596
e 70 693
e 70 282
e 70 482
e 70 681
e 71 275
e 71 661
e 71 315
e 74 846
e 74 949
e 74 375
e 75 888
e 75 724
e 75 725
e 75 698
e 75 475
e 76 125
e 76 136
e 76 772
e 77 819
e 77 597
e 77 221
e 77 248
e 78 753
e 78 342
e 78 590
e 78 234
e 79 222
e 79 286
e 79 799
e 79 127
e 80 514
e 80 644
e 80 579
e 81 694
e 81 742
e 81 298
e 83 605
e 83 258
e 83 641
e 84 349
e 84 993
e 84 146
e 84 604
e 85 898
e 85 385
e 85 974
e 85 562
e 85 691
e 85 738
e 85 206
e 86 401
e 86 470
e 86 633
e 87 296
e 87 843
e 87 312
e 88 575
e 88 379
e 88 946
e 89 918
e 89 128
e 89 428
e 89 394
e 89 628
e 89 581
e 92 185
e 92 263
e 92 362
e 92 744
e 92 718
e 92 141
e 92 524
e 92 423
e 93 465
e 93 137
e 93 236
e 93 716
e 93 193
e 93 819
e 93 233
e 93 864
e 94 590
e 94 579
e 94 991
e 94 533
e 95 385
e 95 762
e 95 267
e 95 473
e 96 628
e 96 542
e 96 200
e 97 549
e 97 209
e 97 614
e 97 763
e 97 839
e 98 121
e 98 437
e 98 869
e 98 716
e 99 910
e 99 296
e 99 517
e 101 348
e 101 580
e 101 911
e 101 449
e 103 700
e 103 460
e 103 264
e 103 575
e 103 298
e 103 242
e 103 260
e 106 658
e 106 656
e 106 546
e 106 433
e 107 270
e 107 925
e 107 582
e 107 619
e 108 306
e 108 729
e 108 376
e 108 171
e 108 431
e 108 498
e 109 952
e 109 128
e 109 491
e 109 969
e 110 358
e 110 842
e 110 949
e 110 910
e 110 840
e 110 566
e 111 416
e 111 950
e 111 753
e 111 232
e 111 421
e 112 906
e 112 834
e 112 221
e 114 800
e 114 656
e 114 472
e 114 465
e 114 603
e 116 362
e 116 596
e 116 847
e 116 624
e 117 211
e 117 866
e 117 296
e 117 881
e 118 855
e 118 539
e 118 538
e 118 665
e 120 716
e 120 819
e 120 712
e 121 392
e 121 671
e 121 338
e 121 532
e 122 937
e 122 188
e 122 925
e 122 528
e 122 700
e 122 840
e 124 323
e 124 489
e 124 232
e 124 820
e 124 685
e 124 393
e 124 598
e 125 598
e 125 269
e 125 528
e 125 638
e 126 747
e 126 762
e 126 325
e 126 537
e 126 374
e 126 993
e 126 634
e 127 362
e 127 579
e 128 992
e 128 772
e 128 228
e 128 174
e 128 255
e 129 484
e 129 336
e 129 219
e 129 220
e 130 739
e 130 774
e 130 359
e 130 1000
e 132 195
e 132 295
e 132 218
e 132 810
e 132 910
e 133 876
e 133 900
e 133 318
e 133 702
e 134 477
e 134 543
e 134 702
e 134 418
e 135 943
e 135 942
e 136 368
e 136 418
e 136 797
e 136 754
e 137 900
e 138 187
e 138 141
e 138 218
e 138 306
e 138 867
e 139 799
e 139 935
e 139 526
e 139 832
e 140 316
e 140 723
e 140 557
e 140 852
e 140 950
e 140 799
e 141 532
e 142 424
e 142 555
e 142 912
e 142 360
e 142 698
e 143 283
e 143 291
e 143 553
e 143 995
e 143 437
e 143 557
e 144 377
e 144 703
e 144 928
e 145 875
e 145 167
e 145 179
e 145 809
e 145 917
e 146 212
e 146 169
e 147 576
e 147 832
e 147 449
e 147 837
e 148 811
e 148 824
e 148 991
e 148 167
e 148 273
e 150 445
e 150 322
e 150 742
e 150 971
e 154 782
e 154 425
e 154 691
e 155 564
e 155 185
e 155 815
e 156 517
e 156 248
e 157 600
e 157 982
e 157 597
e 157 747
e 159 179
e 159 639
e 159 733
e 160 909
e 160 546
e 160 312
e 161 952
e 161 965
e 161 230
e 162 349
e 162 534
e 162 699
e 166 509
e 166 965
e 166 993
e 167 896
e 167 628
e 167 314
e 167 771
e 167 357
e 167 790
e 168 583
e 168 897
e 168 458
e 168 917
e 168 603
e 169 533
e 169 673
e 169 400
e 169 395
e 169 815
e 170 739
e 170 338
e 170 328
e 170 431
e 170 800
e 170 838
e 171 613
e 173 222
e 173 519
e 173 772
e 173 380
e 173 629
e 173 828
e 174 565
e 174 879
e 174 948
e 174 997
e 175 760
e 175 417
e 175 589
e 176 958
e 176 753
e 176 379
e 176 532
e 177 585
e 177 427
e 177 768
e 177 516
e 177 383
e 177 362
e 178 291
e 178 888
e 178 656
e 178 951
e 178 759
e 178 287
e 179 989
e 180 952
e 180 723
e 180 419
e 180 382
e 180 626
e 180 693
e 180 288
e 181 986
e 181 294
e 181 673
e 181 606
e 181 333
e 183 928
e 183 727
e 183 540
e 184 250
e 184 541
e 184 868
e 184 425
e 184 358
e 184 382
e 185 403
e 185 838
e 185 937
e 185 911
e 187 467
e 187 381
e 187 762
e 187 565
e 188 671
e 188 793
e 188 352
e 188 698
e 188 751
e 189 923
e 189 382
e 189 927
e 189 729
e 189 475
e 190 719
e 190 701
e 190 596
e 191 813
e 191 456
e 191 481
e 191 464
e 193 544
e 195 968
e 195 734
e 197 695
e 197 265
e 197 308
e 199 866
e 199 686
e 199 305
e 200 760
e 200 909
e 200 240
e 201 818
e 201 403
e 201 940
e 201 989
e 202 536
e 202 631
e 202 899
e 202 679
e 203 851
e 203 259
e 203 261
e 203 364
e 205 849
e 205 984
e 205 734
e 205 916
e 206 507
e 206 793
e 206 580
e 208 910
e 208 847
e 208 694
e 209 369
e 209 863
e 209 823
e 209 776
e 209 394
e 210 800
e 210 307
e 210 474
e 211 644
e 211 683
e 211 368
e 211 813
e 211 558
e 211 656
e 212 860
e 212 214
e 212 742
e 213 646
e 213 266
e 213 313
e 214 595
e 214 306
e 214 963
e 215 969
e 215 605
e 215 521
e 215 626
e 216 681
e 216 385
e 216 830
e 218 554
e 218 426
e 218 740
e 219 926
e 219 467
e 219 585
e 220 489
e 220 319
e 220 902
e 220 672
e 221 691
e 221 834
e 222 554
e 222 849
e 224 898
e 224 342
e 224 419
e 224 975
e 224 251
e 224 947
e 225 337
e 225 1000
e 225 314
e 227 393
e 227 741
e 227 768
e 227 471
e 228 252
e 228 333
e 229 471
e 229 316
e 229 702
e 230 480
e 230 441
e 232 662
e 233 589
e 233 958
e 233 390
e 233 242
e 233 627
e 234 832
e 234 591
e 236 392
e 236 819
e 236 757
e 236 265
e 238 751
e 238 784
e 238 528
e 239 865
e 239 797
e 239 690
e 239 536
e 240 591
e 240 609
e 240 912
e 240 497
e 241 994
e 241 401
e 241 300
e 241 381
e 241 938
e 241 957
e 241 611
e 241 683
e 242 632
e 242 851
e 244 652
e 244 643
e 244 991
e 245 456
e 245 506
e 245 393
e 245 771
e 246 371
e 246 376
e 246 594
e 246 865
e 247 824
e 247 866
e 247 632
e 247 360
e 247 905
e 248 791
e 249 449
e 249 411
e 250 544
e 250 652
e 250 892
e 250 827
e 250 369
e 250 731
e 250 842
e 251 396
e 251 325
e 251 562
e 251 428
e 251 407
e 252 565
e 255 470
e 255 377
e 255 464
e 258 733
e 258 616
e 258 725
e 258 347
e 259 408
e 259 713
e 259 353
e 260 988
e 260 889
e 260 524
e 261 445
e 261 936
e 263 994
e 263 844
e 263 767
e 263 408
e 263 642
e 263 476
e 264 982
e 264 790
e 266 444
e 266 806
e 267 593
e 267 670
e 267 322
e 267 589
e 267 917
e 268 649
e 268 778
e 268 874
e 268 489
e 268 862
e 269 589
e 270 776
e 270 705
e 270 719
e 272 632
e 272 406
e 272 546
e 272 725
e 273 317
e 273 275
e 273 519
e 273 810
e 274 599
e 274 855
e 274 325
e 274 685
e 274 783
e 274 679
e 275 926
e 275 569
e 275 342
e 275 472
e 280 705
e 280 767
e 280 319
e 280 591
e 280 553
e 280 803
e 282 786
e 282 611
e 282 908
e 282 731
e 282 544
e 283 746
e 283 983
e 283 592
e 284 493
e 284 672
e 284 312
e 284 689
e 285 831
e 285 590
e 285 374
e 285 762
e 285 986
e 285 527
e 285 726
e 285 511
e 286 627
e 286 801
e 286 509
e 287 643
e 287 735
e 287 452
e 288 906
e 288 857
e 288 729
e 291 796
e 294 592
e 294 774
e 294 857
e 294 756
e 295 900
e 295 961
e 296 383
e 296 656
e 296 377
e 296 646
e 298 683
e 298 495
e 300 887
e 300 724
e 300 328
e 302 619
e 302 733
e 302 488
e 302 725
e 303 477
e 303 912
e 303 395
e 303 398
e 304 766
e 304 854
e 304 913
e 304 469
e 304 620
e 305 331
e 305 481
e 306 789
e 306 608
e 306 617
e 306 935
e 306 639
e 307 655
e 307 550
e 307 397
e 308 961
e 308 328
e 308 355
e 308 986
e 308 446
e 309 726
e 309 854
e 309 916
e 311 317
e 311 747
e 311 628
e 311 957
e 312 980
e 312 388
e 312 702
e 313 506
e 313 538
e 313 458
e 314 868
e 314 554
e 314 387
e 314 327
e 315 395
e 315 818
e 315 697
e 315 710
e 316 957
e 316 917
e 316 951
e 317 718
e 317 497
e 318 705
e 318 555
e 318 368
e 318 799
e 319 617
e 319 493
e 319 695
e 319 743
e 319 593
e 321 614
e 321 776
e 322 838
e 322 407
e 322 604
e 323 825
e 323 439
e 323 392
e 325 911
e 325 909
e 327 418
e 327 785
e 327 590
e 327 884
e 327 931
e 328 803
e 328 403
e 328 384
e 331 441
e 331 986
e 331 791
e 331 496
e 332 447
e 332 436
e 332 390
e 332 713
e 333 793
e 333 464
e 333 430
e 333 361
e 336 900
e 336 845
e 337 918
e 337 793
e 338 482
e 342 476
e 342 806
e 342 676
e 347 928
e 347 700
e 348 633
e 348 893
e 348 911
e 348 537
e 348 935
e 349 548
e 349 611
e 352 822
e 352 462
e 353 411
e 353 886
e 354 877
e 354 578
e 354 890
e 355 879
e 355 399
e 355 947
e 355 861
e 356 742
e 356 485
e 356 807
e 357 543
e 357 608
e 358 785
e 359 851
e 359 656
e 360 406
e 360 764
e 360 827
e 360 865
e 360 623
e 360 589
e 361 836
e 361 516
e 361 631
e 361 506
e 362 464
e 362 963
e 364 942
e 364 842
e 367 639
e 367 475
e 367 905
e 368 664
e 368 521
e 368 731
e 369 436
e 369 502
e 370 854
e 370 594
e 371 653
e 371 746
e 372 417
e 372 803
e 372 886
e 372 449
e 372 975
e 374 682
e 374 857
e 374 490
e 374 994
e 375 760
e 375 456
e 375 834
e 376 718
e 376 701
e 376 723
e 377 539
e 377 522
e 377 662
e 377 479
e 377 923
e 377 515
e 379 611
e 379 423
e 379 521
e 379 912
e 379 700
e 379 441
e 379 778
e 379 436
e 380 772
e 380 594
e 380 958
e 380 766
e 381 968
e 381 590
e 381 815
e 381 619
e 382 903
e 382 516
e 383 549
e 383 855
e 383 519
e 383 400
e 383 556
e 383 914
e 383 740
e 384 906
e 384 543
e 385 532
e 385 992
e 385 742
e 386 877
e 386 442
e 386 863
e 386 997
e 386 632
e 387 999
e 387 474
e 387 676
e 388 719
e 388 581
e 389 914
e 389 969
e 389 477
e 389 782
e 389 713
e 390 834
e 390 998
e 390 632
e 393 982
e 394 470
e 394 878
e 395 754
e 395 743
e 395 649
e 396 661
e 396 407
e 397 502
e 397 909
e 397 557
e 398 936
e 398 997
e 399 648
e 399 522
e 399 991
e 400 845
e 400 490
e 401 673
e 403 634
e 403 861
e 403 910
e 406 441
e 406 806
e 406 727
e 407 585
e 407 427
e 407 724
e 407 553
e 408 901
e 408 479
e 408 670
e 409 689
e 409 470
e 409 994
e 409 698
e 410 915
e 410 947
e 410 437
e 411 702
e 411 865
e 411 413
e 413 631
e 413 940
e 413 626
e 413 439
e 413 962
e 414 902
e 414 473
e 414 648
e 414 669
e 414 688
e 414 430
e 416 614
e 416 832
e 416 981
e 417 856
e 418 598
e 418 419
e 418 688
e 418 783
e 419 617
e 419 896
e 421 483
e 421 503
e 421 784
e 421 801
e 421 763
e 421 815
e 422 620
e 422 542
e 423 473
e 423 542
e 423 598
e 424 479
e 424 595
e 424 954
e 424 569
e 425 893
e 425 877
e 425 842
e 426 938
e 426 846
e 426 856
e 427 527
e 427 787
e 427 735
e 428 867
e 428 648
e 430 950
e 433 578
e 433 613
e 435 727
e 435 820
e 435 583
e 435 946
e 436 1000
e 436 886
e 436 485
e 436 695
e 437 828
e 437 645
e 437 765
e 437 699
e 438 506
e 438 471
e 438 672
e 438 738
e 439 482
e 439 502
e 439 600
e 441 764
e 442 833
e 442 494
e 442 667
e 442 641
e 443 900
e 443 815
e 443 727
e 444 976
e 444 944
e 445 958
e 445 464
e 445 1000
e 445 474
e 446 919
e 446 962
e 446 740
e 446 875
e 447 663
e 447 729
e 447 732
e 448 914
e 448 879
e 448 593
e 448 942
e 449 502
e 449 638
e 449 516
e 450 495
e 450 607
e 450 550
e 452 555
e 455 534
e 455 563
e 455 557
e 455 538
e 458 867
e 460 706
e 460 964
e 462 534
e 462 580
e 464 913
e 464 719
e 464 751
e 465 963
e 467 936
e 467 595
e 467 550
e 469 735
e 469 769
e 470 927
e 471 705
e 472 715
e 472 690
e 472 651
e 472 576
e 473 784
e 473 782
e 473 958
e 474 811
e 474 769
e 474 564
e 475 690
e 476 823
e 476 599
e 477 927
e 477 943
e 479 597
e 479 944
e 480 724
e 480 700
e 481 686
e 481 662
e 481 541
e 482 524
e 482 852
e 482 710
e 483 767
e 483 522
e 483 741
e 484 733
e 484 669
e 484 974
e 484 674
e 485 611
e 485 746
e 485 592
e 486 613
e 488 554
e 488 1000
e 489 662
e 489 509
e 489 889
e 490 582
e 491 649
e 491 815
e 493 954
e 493 763
e 494 836
e 494 763
e 494 975
e 494 873
e 495 540
e 495 598
e 496 652
e 496 997
e 497 688
e 497 624
e 497 573
e 498 644
e 498 857
e 498 591
e 498 778
e 499 663
e 499 502
e 499 528
e 502 828
e 502 881
e 503 658
e 503 935
e 505 880
e 505 985
e 505 987
e 506 943
e 506 783
e 506 655
e 507 823
e 507 583
e 509 832
e 509 553
e 511 936
e 511 715
e 511 856
e 511 969
e 511 522
e 513 945
e 514 950
e 515 866
e 515 899
e 515 594
e 515 991
e 515 691
e 516 886
e 516 861
e 517 716
e 517 890
e 517 832
e 517 925
e 518 754
e 518 733
e 521 589
e 521 825
e 522 553
e 522 757
e 522 926
e 523 644
e 523 623
e 525 530
e 525 919
e 525 763
e 526 724
e 526 1000
e 526 887
e 526 688
e 526 553
e 527 776
e 527 600
e 527 705
e 527 700
e 528 683
e 530 583
e 531 941
e 531 764
e 531 581
e 532 968
e 532 927
e 533 992
e 533 964
e 533 886
e 533 811
e 533 719
e 534 692
e 534 839
e 534 631
e 536 546
e 536 873
e 538 743
e 538 690
e 538 994
e 539 579
e 540 886
e 541 906
e 541 778
e 542 940
e 542 681
e 543 911
e 545 769
e 545 966
e 548 806
e 548 753
e 549 692
e 549 878
e 550 867
e 550 804
e 553 720
e 554 744
e 554 683
e 554 996
e 554 960
e 555 672
e 555 819
e 555 758
e 556 863
e 556 609
e 558 824
e 558 765
e 558 857
e 558 903
e 562 809
e 563 802
e 563 737
e 563 867
e 564 973
e 564 800
e 566 895
e 566 947
e 569 759
e 569 843
e 569 655
e 569 665
e 573 945
e 573 879
e 573 997
e 575 763
e 575 707
e 576 626
e 578 865
e 578 819
e 579 638
e 579 683
e 580 734
e 580 787
e 581 791
e 581 790
e 581 727
e 581 629
e 581 983
e 582 888
e 582 937
e 583 692
e 585 619
e 585 796
e 588 991
e 588 902
e 588 589
e 590 987
e 590 845
e 590 945
e 590 957
e 590 645
e 591 603
e 591 710
e 591 941
e 591 756
e 592 801
e 592 970
e 592 818
e 593 734
e 594 869
e 594 880
e 595 944
e 596 825
e 598 674
e 598 637
e 599 899
e 599 679
e 603 1000
e 603 820
e 603 960
e 604 716
e 604 674
e 605 609
e 605 952
e 605 928
e 606 700
e 606 913
e 607 980
e 607 733
e 607 716
e 608 999
e 611 996
e 613 855
e 613 769
e 614 723
e 616 871
e 616 646
e 616 674
e 617 768
e 619 901
e 619 642
e 620 839
e 620 938
e 620 988
e 623 703
e 624 853
e 624 995
e 627 697
e 627 685
e 628 832
e 628 667
e 629 844
e 632 757
e 632 698
e 632 724
e 632 824
e 637 797
e 637 830
e 637 853
e 639 758
e 641 938
e 642 892
e 643 813
e 644 895
e 644 985
e 644 886
e 645 739
e 645 960
e 645 771
e 646 676
e 646 725
e 648 860
e 649 875
e 649 840
e 651 837
e 651 664
e 651 993
e 653 887
e 653 880
e 655 734
e 655 871
e 656 709
e 656 957
e 656 818
e 656 964
e 658 794
e 658 703
e 661 772
e 661 832
e 662 751
e 662 961
e 662 998
e 663 699
e 664 931
e 664 926
e 665 988
e 665 718
e 667 857
e 670 961
e 670 823
e 670 966
e 670 698
e 670 951
e 673 739
e 673 998
e 676 706
e 676 854
e 679 919
e 682 753
e 682 720
e 682 935
e 683 981
e 686 944
e 686 994
e 689 715
e 689 726
e 690 828
e 690 760
e 690 725
e 690 790
e 690 849
e 691 861
e 691 999
e 692 996
e 692 751
e 693 986
e 694 906
e 694 761
e 694 976
e 695 842
e 697 850
e 697 786
e 699 890
e 699 794
e 699 741
e 700 787
e 701 831
e 702 944
e 702 873
e 703 897
e 705 800
e 707 936
e 707 747
e 709 724
e 709 727
e 709 872
e 710 985
e 712 719
e 712 976
e 712 850
e 720 872
e 720 874
e 720 969
e 720 918
e 723 918
e 724 988
e 725 938
e 725 765
e 726 799
e 726 807
e 729 774
e 729 763
e 732 871
e 732 814
e 734 973
e 737 973
e 737 813
e 738 966
e 738 921
e 741 935
e 742 751
e 742 989
e 742 754
e 743 969
e 744 963
e 744 850
e 744 830
e 746 863
e 746 980
e 746 954
e 746 992
e 747 764
e 747 751
e 751 843
e 753 899
e 753 984
e 753 801
e 753 969
e 753 794
e 756 765
e 756 824
e 756 865
e 757 989
e 758 782
e 758 791
e 759 957
e 760 973
e 761 918
e 761 857
e 761 843
e 762 849
e 763 785
e 767 815
e 769 892
e 771 804
e 771 873
e 771 950
e 771 996
e 772 804
e 774 908
e 774 842
e 776 981
e 778 970
e 782 886
e 783 941
e 785 869
e 786 929
e 786 804
e 789 926
e 790 822
e 790 946
e 791 941
e 793 912
e 793 862
e 793 903
e 794 851
e 796 804
e 796 927
e 800 954
e 800 897
e 801 946
e 801 950
e 801 901
e 802 984
e 802 917
e 803 999
e 804 921
e 807 864
e 809 866
e 810 816
e 811 919
e 813 997
e 814 856
e 816 828
e 818 929
e 818 895
e 822 833
e 823 908
e 823 968
e 824 948
e 828 865
e 828 929
e 830 902
e 830 871
e 831 985
e 832 842
e 832 843
e 834 973
e 837 961
e 838 890
e 838 909
e 838 871
e 840 949
e 842 866
e 844 871
e 844 929
e 846 875
e 850 925
e 850 983
e 850 912
e 851 854
e 851 905
e 853 864
e 853 996
e 854 949
e 854 895
e 854 951
e 855 935
e 855 942
e 855 923
e 856 889
e 860 884
e 860 893
e 862 987
e 864 887
e 864 997
e 868 918
e 872 947
e 873 988
e 873 878
e 876 938
e 876 946
e 877 940
e 879 973
e 880 965
e 880 974
e 881 985
e 895 973
e 895 970
e 896 980
e 896 961
e 898 943
e 900 989
e 900 991
e 901 931
e 902 993
e 903 952
e 905 985
e 906 986
e 906 962
e 909 926
e 910 936
e 911 940
e 915 928
e 916 921
e 917 939
e 918 976
e 927 944
e 938 971
e 939 961
e 948 999
e 960 975
e 965 969
e 971 975
