txt_Ins/graph-1000-121.txt
n 1000
e 0 61
e 0 55
e 0 183
e 0 589
e 0 410
e 1 907
e 1 268
e 1 134
e 1 625
e 2 970
e 2 161
e 2 666
e 2 746
e 3 170
e 3 788
e 3 803
e 3 207
e 3 752
e 3 529
e 4 336
e 4 770
e 4 796
e 4 159
e 4 356
e 5 247
e 5 119
e 5 337
e 8 953
e 8 837
e 8 862
e 8 556
e 8 250
e 8 730
e 9 824
e 9 731
e 9 335
e 9 948
e 9 386
e 12 724
e 12 705
e 12 363
e 13 544
e 13 822
e 13 44
e 13 202
e 13 135
e 14 945
e 14 224
e 14 381
e 14 941
e 14 696
e 14 755
e 14 232
e 15 981
e 15 84
e 15 985
e 15 137
e 15 517
e 15 709
e 15 311
e 16 969
e 16 712
e 16 422
e 16 650
e 16 796
e 16 953
e 16 304
e 18 691
e 18 765
e 18 485
e 20 699
e 20 961
e 20 246
e 20 52
e 21 155
e 21 899
e 21 31
e 21 466
e 21 699
e 21 753
e 22 397
e 22 631
e 22 263
e 22 160
e 22 632
e 22 964
e 22 894
e 22 995
e 22 846
e 23 116
e 23 944
e 23 495
e 23 826
e 23 133
e 23 590
e 23 823
e 23 41
e 25 501
e 25 496
e 25 45
e 31 648
e 31 699
e 31 522
e 32 376
e 32 85
e 32 153
e 32 877
e 33 366
e 33 508
e 33 480
e 33 311
e 33 384
e 34 95
e 34 728
e 34 435
e 34 594
e 35 861
e 35 389
e 35 346
e 35 512
e 35 88
e 35 781
e 37 636
e 37 443
e 37 851
e 37 623
e 38 408
e 38 696
e 38 48
e 40 297
e 40 817
e 40 49
e 40 290
e 40 760
e 41 525
e 41 866
e 41 451
e 41 711
e 41 953
e 41 248
e 41 517
e 42 305
e 42 823
e 42 640
e 42 664
e 44 264
e 44 251
e 44 176
e 45 668
e 45 490
e 45 651
e 45 883
e 45 922
e 45 813
e 45 812
e 45 304
e 45 886
e 46 266
e 46 876
e 46 192
e 46 699
e 46 920
e 47 402
e 47 555
e 47 382
e 47 421
e 48 914
e 48 200
e 48 746
e 48 228
e 48 113
e 49 485
e 49 538
e 49 165
e 49 483
e 49 424
e 49 243
e 49 74
e 50 423
e 50 636
e 50 798
e 50 799
e 50 862
e 52 327
e 52 430
e 52 673
e 52 326
e 52 885
e 52 536
e 53 451
e 53 835
e 53 988
e 54 204
e 54 231
e 54 136
e 54 513
e 54 953
e 55 853
e 55 495
e 56 799
e 56 476
e 56 427
e 56 711
e 56 194
e 56 75
e 57 378
e 57 724
e 57 250
e 59 168
e 59 65
e 59 505
e 59 841
e 59 895
e 60 685
e 60 177
e 60 873
e 61 330
e 61 832
e 61 726
e 61 416
e 61 783
e 62 463
e 62 369
e 62 693
e 63 740
e 63 378
e 63 815
e 63 524
e 63 636
e 63 205
e 65 793
e 65 218
e 65 210
e 65 994
e 65 512
e 65 741
e 65 852
e 66 273
e 66 97
e 66 633
e 66 429
e 67 670
e 67 327
e 67 406
e 67 320
e 67 938
e 67 640
e 67 202
e 68 963
e 68 425
e 68 109
e 68 119
e 68 595
e 69 692
e 69 281
e 69 481
e 69 680
e 70 274
e 70 660
e 70 314
e 73 845
e 73 948
e 73 374
e 74 887
e 74 723
e 74 724
e 74 697
e 74 474
e 75 124
e 75 135
e 75 771
e 76 818
e 76 596
e 76 220
e 76 247
e 77 752
e 77 341
e 77 589
e 77 233
e 78 221
e 78 285
e 78 798
e 78 126
e 79 513
e 79 643
e 79 578
e 80 693
e 80 741
e 80 297
e 82 604
e 82 257
e 82 640
e 83 348
e 83 992
e 83 145
e 83 603
e 84 897
e 84 384
e 84 973
e 84 561
e 84 690
e 84 737
e 84 205
e 85 400
e 85 469
e 85 632
e 86 295
e 86 842
e 86 311
e 87 574
e 87 378
e 87 945
e 88 917
e 88 127
e 88 427
e 88 393
e 88 627
e 88 580
e 91 184
e 91 262
e 91 361
e 91 743
e 91 717
e 91 140
e 91 523
e 91 422
e 92 464
e 92 136
e 92 235
e 92 715
e 92 192
e 92 818
e 92 232
e 92 863
e 93 589
e 93 578
e 93 990
e 93 532
e 94 384
e 94 761
e 94 266
e 94 472
e 95 627
e 95 541
e 95 199
e 96 548
e 96 208
e 96 613
e 96 762
e 96 838
e 97 120
e 97 436
e 97 868
e 97 715
e 98 909
e 98 295
e 98 516
e 100 347
e 100 579
e 100 910
e 100 448
e 102 699
e 102 459
e 102 263
e 102 574
e 102 297
e 102 241
e 102 259
e 105 657
e 105 655
e 105 545
e 105 432
e 106 269
e 106 924
e 106 581
e 106 618
e 107 305
e 107 728
e 107 375
e 107 170
e 107 430
e 107 497
e 108 951
e 108 127
e 108 490
e 108 968
e 109 357
e 109 841
e 109 948
e 109 909
e 109 839
e 109 565
e 110 415
e 110 949
e 110 752
e 110 231
e 110 420
e 111 905
e 111 833
e 111 220
e 113 799
e 113 655
e 113 471
e 113 464
e 113 602
e 115 361
e 115 595
e 115 846
e 115 623
e 116 210
e 116 865
e 116 295
e 116 880
e 117 854
e 117 538
e 117 537
e 117 664
e 119 715
e 119 818
e 119 711
e 120 391
e 120 670
e 120 337
e 120 531
e 121 936
e 121 187
e 121 924
e 121 527
e 121 699
e 121 839
e 123 322
e 123 488
e 123 231
e 123 819
e 123 684
e 123 392
e 123 597
e 124 597
e 124 268
e 124 527
e 124 637
e 125 746
e 125 761
e 125 324
e 125 536
e 125 373
e 125 992
e 125 633
e 126 361
e 126 578
e 127 991
e 127 771
e 127 227
e 127 173
e 127 254
e 128 483
e 128 335
e 128 218
e 128 219
e 129 738
e 129 773
e 129 358
e 129 999
e 131 194
e 131 294
e 131 217
e 131 809
e 131 909
e 132 875
e 132 899
e 132 317
e 132 701
e 133 476
e 133 542
e 133 701
e 133 417
e 134 942
e 134 941
e 135 367
e 135 417
e 135 796
e 135 753
e 136 899
e 137 186
e 137 140
e 137 217
e 137 305
e 137 866
e 138 798
e 138 934
e 138 525
e 138 831
e 139 315
e 139 722
e 139 556
e 139 851
e 139 949
e 139 798
e 140 531
e 141 423
e 141 554
e 141 911
e 141 359
e 141 697
e 142 282
e 142 290
e 142 552
e 142 994
e 142 436
e 142 556
e 143 376
e 143 702
e 143 927
e 144 874
e 144 166
e 144 178
e 144 808
e 144 916
e 145 211
e 145 168
e 146 575
e 146 831
e 146 448
e 146 836
e 147 810
e 147 823
e 147 990
e 147 166
e 147 272
e 149 444
e 149 321
e 149 741
e 149 970
e 153 781
e 153 424
e 153 690
e 154 563
e 154 184
e 154 814
e 155 516
e 155 247
e 156 599
e 156 981
e 156 596
e 156 746
e 158 178
e 158 638
e 158 732
e 159 908
e 159 545
e 159 311
e 160 951
e 160 964
e 160 229
e 161 348
e 161 533
e 161 698
e 165 508
e 165 964
e 165 992
e 166 895
e 166 627
e 166 313
e 166 770
e 166 356
e 166 789
e 167 582
e 167 896
e 167 457
e 167 916
e 167 602
e 168 532
e 168 672
e 168 399
e 168 394
e 168 814
e 169 738
e 169 337
e 169 327
e 169 430
e 169 799
e 169 837
e 170 612
e 172 221
e 172 518
e 172 771
e 172 379
e 172 628
e 172 827
e 173 564
e 173 878
e 173 947
e 173 996
e 174 759
e 174 416
e 174 588
e 175 957
e 175 752
e 175 378
e 175 531
e 176 584
e 176 426
e 176 767
e 176 515
e 176 382
e 176 361
e 177 290
e 177 887
e 177 655
e 177 950
e 177 758
e 177 286
e 178 988
e 179 951
e 179 722
e 179 418
e 179 381
e 179 625
e 179 692
e 179 287
e 180 985
e 180 293
e 180 672
e 180 605
e 180 332
e 182 927
e 182 726
e 182 539
e 183 249
e 183 540
e 183 867
e 183 424
e 183 357
e 183 381
e 184 402
e 184 837
e 184 936
e 184 910
e 186 466
e 186 380
e 186 761
e 186 564
e 187 670
e 187 792
e 187 351
e 187 697
e 187 750
e 188 922
e 188 381
e 188 926
e 188 728
e 188 474
e 189 718
e 189 700
e 189 595
e 190 812
e 190 455
e 190 480
e 190 463
e 192 543
e 194 967
e 194 733
e 196 694
e 196 264
e 196 307
e 198 865
e 198 685
e 198 304
e 199 759
e 199 908
e 199 239
e 200 817
e 200 402
e 200 939
e 200 988
e 201 535
e 201 630
e 201 898
e 201 678
e 202 850
e 202 258
e 202 260
e 202 363
e 204 848
e 204 983
e 204 733
e 204 915
e 205 506
e 205 792
e 205 579
e 207 909
e 207 846
e 207 693
e 208 368
e 208 862
e 208 822
e 208 775
e 208 393
e 209 799
e 209 306
e 209 473
e 210 643
e 210 682
e 210 367
e 210 812
e 210 557
e 210 655
e 211 859
e 211 213
e 211 741
e 212 645
e 212 265
e 212 312
e 213 594
e 213 305
e 213 962
e 214 968
e 214 604
e 214 520
e 214 625
e 215 680
e 215 384
e 215 829
e 217 553
e 217 425
e 217 739
e 218 925
e 218 466
e 218 584
e 219 488
e 219 318
e 219 901
e 219 671
e 220 690
e 220 833
e 221 553
e 221 848
e 223 897
e 223 341
e 223 418
e 223 974
e 223 250
e 223 946
e 224 336
e 224 999
e 224 313
e 226 392
e 226 740
e 226 767
e 226 470
e 227 251
e 227 332
e 228 470
e 228 315
e 228 701
e 229 479
e 229 440
e 231 661
e 232 588
e 232 957
e 232 389
e 232 241
e 232 626
e 233 831
e 233 590
e 235 391
e 235 818
e 235 756
e 235 264
e 237 750
e 237 783
e 237 527
e 238 864
e 238 796
e 238 689
e 238 535
e 239 590
e 239 608
e 239 911
e 239 496
e 240 993
e 240 400
e 240 299
e 240 380
e 240 937
e 240 956
e 240 610
e 240 682
e 241 631
e 241 850
e 243 651
e 243 642
e 243 990
e 244 455
e 244 505
e 244 392
e 244 770
e 245 370
e 245 375
e 245 593
e 245 864
e 246 823
e 246 865
e 246 631
e 246 359
e 246 904
e 247 790
e 248 448
e 248 410
e 249 543
e 249 651
e 249 891
e 249 826
e 249 368
e 249 730
e 249 841
e 250 395
e 250 324
e 250 561
e 250 427
e 250 406
e 251 564
e 254 469
e 254 376
e 254 463
e 257 732
e 257 615
e 257 724
e 257 346
e 258 407
e 258 712
e 258 352
e 259 987
e 259 888
e 259 523
e 260 444
e 260 935
e 262 993
e 262 843
e 262 766
e 262 407
e 262 641
e 262 475
e 263 981
e 263 789
e 265 443
e 265 805
e 266 592
e 266 669
e 266 321
e 266 588
e 266 916
e 267 648
e 267 777
e 267 873
e 267 488
e 267 861
e 268 588
e 269 775
e 269 704
e 269 718
e 271 631
e 271 405
e 271 545
e 271 724
e 272 316
e 272 274
e 272 518
e 272 809
e 273 598
e 273 854
e 273 324
e 273 684
e 273 782
e 273 678
e 274 925
e 274 568
e 274 341
e 274 471
e 279 704
e 279 766
e 279 318
e 279 590
e 279 552
e 279 802
e 281 785
e 281 610
e 281 907
e 281 730
e 281 543
e 282 745
e 282 982
e 282 591
e 283 492
e 283 671
e 283 311
e 283 688
e 284 830
e 284 589
e 284 373
e 284 761
e 284 985
e 284 526
e 284 725
e 284 510
e 285 626
e 285 800
e 285 508
e 286 642
e 286 734
e 286 451
e 287 905
e 287 856
e 287 728
e 290 795
e 293 591
e 293 773
e 293 856
e 293 755
e 294 899
e 294 960
e 295 382
e 295 655
e 295 376
e 295 645
e 297 682
e 297 494
e 299 886
e 299 723
e 299 327
e 301 618
e 301 732
e 301 487
e 301 724
e 302 476
e 302 911
e 302 394
e 302 397
e 303 765
e 303 853
e 303 912
e 303 468
e 303 619
e 304 330
e 304 480
e 305 788
e 305 607
e 305 616
e 305 934
e 305 638
e 306 654
e 306 549
e 306 396
e 307 960
e 307 327
e 307 354
e 307 985
e 307 445
e 308 725
e 308 853
e 308 915
e 310 316
e 310 746
e 310 627
e 310 956
e 311 979
e 311 387
e 311 701
e 312 505
e 312 537
e 312 457
e 313 867
e 313 553
e 313 386
e 313 326
e 314 394
e 314 817
e 314 696
e 314 709
e 315 956
e 315 916
e 315 950
e 316 717
e 316 496
e 317 704
e 317 554
e 317 367
e 317 798
e 318 616
e 318 492
e 318 694
e 318 742
e 318 592
e 320 613
e 320 775
e 321 837
e 321 406
e 321 603
e 322 824
e 322 438
e 322 391
e 324 910
e 324 908
e 326 417
e 326 784
e 326 589
e 326 883
e 326 930
e 327 802
e 327 402
e 327 383
e 330 440
e 330 985
e 330 790
e 330 495
e 331 446
e 331 435
e 331 389
e 331 712
e 332 792
e 332 463
e 332 429
e 332 360
e 335 899
e 335 844
e 336 917
e 336 792
e 337 481
e 341 475
e 341 805
e 341 675
e 346 927
e 346 699
e 347 632
e 347 892
e 347 910
e 347 536
e 347 934
e 348 547
e 348 610
e 351 821
e 351 461
e 352 410
e 352 885
e 353 876
e 353 577
e 353 889
e 354 878
e 354 398
e 354 946
e 354 860
e 355 741
e 355 484
e 355 806
e 356 542
e 356 607
e 357 784
e 358 850
e 358 655
e 359 405
e 359 763
e 359 826
e 359 864
e 359 622
e 359 588
e 360 835
e 360 515
e 360 630
e 360 505
e 361 463
e 361 962
e 363 941
e 363 841
e 366 638
e 366 474
e 366 904
e 367 663
e 367 520
e 367 730
e 368 435
e 368 501
e 369 853
e 369 593
e 370 652
e 370 745
e 371 416
e 371 802
e 371 885
e 371 448
e 371 974
e 373 681
e 373 856
e 373 489
e 373 993
e 374 759
e 374 455
e 374 833
e 375 717
e 375 700
e 375 722
e 376 538
e 376 521
e 376 661
e 376 478
e 376 922
e 376 514
e 378 610
e 378 422
e 378 520
e 378 911
e 378 699
e 378 440
e 378 777
e 378 435
e 379 771
e 379 593
e 379 957
e 379 765
e 380 967
e 380 589
e 380 814
e 380 618
e 381 902
e 381 515
e 382 548
e 382 854
e 382 518
e 382 399
e 382 555
e 382 913
e 382 739
e 383 905
e 383 542
e 384 531
e 384 991
e 384 741
e 385 876
e 385 441
e 385 862
e 385 996
e 385 631
e 386 998
e 386 473
e 386 675
e 387 718
e 387 580
e 388 913
e 388 968
e 388 476
e 388 781
e 388 712
e 389 833
e 389 997
e 389 631
e 392 981
e 393 469
e 393 877
e 394 753
e 394 742
e 394 648
e 395 660
e 395 406
e 396 501
e 396 908
e 396 556
e 397 935
e 397 996
e 398 647
e 398 521
e 398 990
e 399 844
e 399 489
e 400 672
e 402 633
e 402 860
e 402 909
e 405 440
e 405 805
e 405 726
e 406 584
e 406 426
e 406 723
e 406 552
e 407 900
e 407 478
e 407 669
e 408 688
e 408 469
e 408 993
e 408 697
e 409 914
e 409 946
e 409 436
e 410 701
e 410 864
e 410 412
e 412 630
e 412 939
e 412 625
e 412 438
e 412 961
e 413 901
e 413 472
e 413 647
e 413 668
e 413 687
e 413 429
e 415 613
e 415 831
e 415 980
e 416 855
e 417 597
e 417 418
e 417 687
e 417 782
e 418 616
e 418 895
e 420 482
e 420 502
e 420 783
e 420 800
e 420 762
e 420 814
e 421 619
e 421 541
e 422 472
e 422 541
e 422 597
e 423 478
e 423 594
e 423 953
e 423 568
e 424 892
e 424 876
e 424 841
e 425 937
e 425 845
e 425 855
e 426 526
e 426 786
e 426 734
e 427 866
e 427 647
e 429 949
e 432 577
e 432 612
e 434 726
e 434 819
e 434 582
e 434 945
e 435 999
e 435 885
e 435 484
e 435 694
e 436 827
e 436 644
e 436 764
e 436 698
e 437 505
e 437 470
e 437 671
e 437 737
e 438 481
e 438 501
e 438 599
e 440 763
e 441 832
e 441 493
e 441 666
e 441 640
e 442 899
e 442 814
e 442 726
e 443 975
e 443 943
e 444 957
e 444 463
e 444 999
e 444 473
e 445 918
e 445 961
e 445 739
e 445 874
e 446 662
e 446 728
e 446 731
e 447 913
e 447 878
e 447 592
e 447 941
e 448 501
e 448 637
e 448 515
e 449 494
e 449 606
e 449 549
e 451 554
e 454 533
e 454 562
e 454 556
e 454 537
e 457 866
e 459 705
e 459 963
e 461 533
e 461 579
e 463 912
e 463 718
e 463 750
e 464 962
e 466 935
e 466 594
e 466 549
e 468 734
e 468 768
e 469 926
e 470 704
e 471 714
e 471 689
e 471 650
e 471 575
e 472 783
e 472 781
e 472 957
e 473 810
e 473 768
e 473 563
e 474 689
e 475 822
e 475 598
e 476 926
e 476 942
e 478 596
e 478 943
e 479 723
e 479 699
e 480 685
e 480 661
e 480 540
e 481 523
e 481 851
e 481 709
e 482 766
e 482 521
e 482 740
e 483 732
e 483 668
e 483 973
e 483 673
e 484 610
e 484 745
e 484 591
e 485 612
e 487 553
e 487 999
e 488 661
e 488 508
e 488 888
e 489 581
e 490 648
e 490 814
e 492 953
e 492 762
e 493 835
e 493 762
e 493 974
e 493 872
e 494 539
e 494 597
e 495 651
e 495 996
e 496 687
e 496 623
e 496 572
e 497 643
e 497 856
e 497 590
e 497 777
e 498 662
e 498 501
e 498 527
e 501 827
e 501 880
e 502 657
e 502 934
e 504 879
e 504 984
e 504 986
e 505 942
e 505 782
e 505 654
e 506 822
e 506 582
e 508 831
e 508 552
e 510 935
e 510 714
e 510 855
e 510 968
e 510 521
e 512 944
e 513 949
e 514 865
e 514 898
e 514 593
e 514 990
e 514 690
e 515 885
e 515 860
e 516 715
e 516 889
e 516 831
e 516 924
e 517 753
e 517 732
e 520 588
e 520 824
e 521 552
e 521 756
e 521 925
e 522 643
e 522 622
e 524 529
e 524 918
e 524 762
e 525 723
e 525 999
e 525 886
e 525 687
e 525 552
e 526 775
e 526 599
e 526 704
e 526 699
e 527 682
e 529 582
e 530 940
e 530 763
e 530 580
e 531 967
e 531 926
e 532 991
e 532 963
e 532 885
e 532 810
e 532 718
e 533 691
e 533 838
e 533 630
e 535 545
e 535 872
e 537 742
e 537 689
e 537 993
e 538 578
e 539 885
e 540 905
e 540 777
e 541 939
e 541 680
e 542 910
e 544 768
e 544 965
e 547 805
e 547 752
e 548 691
e 548 877
e 549 866
e 549 803
e 552 719
e 553 743
e 553 682
e 553 995
e 553 959
e 554 671
e 554 818
e 554 757
e 555 862
e 555 608
e 557 823
e 557 764
e 557 856
e 557 902
e 561 808
e 562 801
e 562 736
e 562 866
e 563 972
e 563 799
e 565 894
e 565 946
e 568 758
e 568 842
e 568 654
e 568 664
e 572 944
e 572 878
e 572 996
e 574 762
e 574 706
e 575 625
e 577 864
e 577 818
e 578 637
e 578 682
e 579 733
e 579 786
e 580 790
e 580 789
e 580 726
e 580 628
e 580 982
e 581 887
e 581 936
e 582 691
e 584 618
e 584 795
e 587 990
e 587 901
e 587 588
e 589 986
e 589 844
e 589 944
e 589 956
e 589 644
e 590 602
e 590 709
e 590 940
e 590 755
e 591 800
e 591 969
e 591 817
e 592 733
e 593 868
e 593 879
e 594 943
e 595 824
e 597 673
e 597 636
e 598 898
e 598 678
e 602 999
e 602 819
e 602 959
e 603 715
e 603 673
e 604 608
e 604 951
e 604 927
e 605 699
e 605 912
e 606 979
e 606 732
e 606 715
e 607 998
e 610 995
e 612 854
e 612 768
e 613 722
e 615 870
e 615 645
e 615 673
e 616 767
e 618 900
e 618 641
e 619 838
e 619 937
e 619 987
e 622 702
e 623 852
e 623 994
e 626 696
e 626 684
e 627 831
e 627 666
e 628 843
e 631 756
e 631 697
e 631 723
e 631 823
e 636 796
e 636 829
e 636 852
e 638 757
e 640 937
e 641 891
e 642 812
e 643 894
e 643 984
e 643 885
e 644 738
e 644 959
e 644 770
e 645 675
e 645 724
e 647 859
e 648 874
e 648 839
e 650 836
e 650 663
e 650 992
e 652 886
e 652 879
e 654 733
e 654 870
e 655 708
e 655 956
e 655 817
e 655 963
e 657 793
e 657 702
e 660 771
e 660 831
e 661 750
e 661 960
e 661 997
e 662 698
e 663 930
e 663 925
e 664 987
e 664 717
e 666 856
e 669 960
e 669 822
e 669 965
e 669 697
e 669 950
e 672 738
e 672 997
e 675 705
e 675 853
e 678 918
e 681 752
e 681 719
e 681 934
e 682 980
e 685 943
e 685 993
e 688 714
e 688 725
e 689 827
e 689 759
e 689 724
e 689 789
e 689 848
e 690 860
e 690 998
e 691 995
e 691 750
e 692 985
e 693 905
e 693 760
e 693 975
e 694 841
e 696 849
e 696 785
e 698 889
e 698 793
e 698 740
e 699 786
e 700 830
e 701 943
e 701 872
e 702 896
e 704 799
e 706 935
e 706 746
e 708 723
e 708 726
e 708 871
e 709 984
e 711 718
e 711 975
e 711 849
e 719 871
e 719 873
e 719 968
e 719 917
e 722 917
e 723 987
e 724 937
e 724 764
e 725 798
e 725 806
e 728 773
e 728 762
e 731 870
e 731 813
e 733 972
e 736 972
e 736 812
e 737 965
e 737 920
e 740 934
e 741 750
e 741 988
e 741 753
e 742 968
e 743 962
e 743 849
e 743 829
e 745 862
e 745 979
e 745 953
e 745 991
e 746 763
e 746 750
e 750 842
e 752 898
e 752 983
e 752 800
e 752 968
e 752 793
e 755 764
e 755 823
e 755 864
e 756 988
e 757 781
e 757 790
e 758 956
e 759 972
e 760 917
e 760 856
e 760 842
e 761 848
e 762 784
e 766 814
e 768 891
e 770 803
e 770 872
e 770 949
e 770 995
e 771 803
e 773 907
e 773 841
e 775 980
e 777 969
e 781 885
e 782 940
e 784 868
e 785 928
e 785 803
e 788 925
e 789 821
e 789 945
e 790 940
e 792 911
e 792 861
e 792 902
e 793 850
e 795 803
e 795 926
e 799 953
e 799 896
e 800 945
e 800 949
e 800 900
e 801 983
e 801 916
e 802 998
e 803 920
e 806 863
e 808 865
e 809 815
e 810 918
e 812 996
e 813 855
e 815 827
e 817 928
e 817 894
e 821 832
e 822 907
e 822 967
e 823 947
e 827 864
e 827 928
e 829 901
e 829 870
e 830 984
e 831 841
e 831 842
e 833 972
e 836 960
e 837 889
e 837 908
e 837 870
e 839 948
e 841 865
e 843 870
e 843 928
e 845 874
e 849 924
e 849 982
e 849 911
e 850 853
e 850 904
e 852 863
e 852 995
e 853 948
e 853 894
e 853 950
e 854 934
e 854 941
e 854 922
e 855 888
e 859 883
e 859 892
e 861 986
e 863 886
e 863 996
e 867 917
e 871 946
e 872 987
e 872 877
e 875 937
e 875 945
e 876 939
e 878 972
e 879 964
e 879 973
e 880 984
e 894 972
e 894 969
e 895 979
e 895 960
e 897 942
e 899 988
e 899 990
e 900 930
e 901 992
e 902 951
e 904 984
e 905 985
e 905 961
e 908 925
e 909 935
e 910 939
e 914 927
e 915 920
e 916 938
e 917 975
e 926 943
e 937 970
e 938 960
e 947 998
e 959 974
e 964 968
e 970 974
